57
125
87	5
86	5
85	5
84	3
83	2
82	4
81	4
80	2
79	4
78	3
77	4
75	1
74	6
72	5
71	3
70	3
68	5
67	3
66	4
65	1
64	3
63	2
62	4
61	3
60	2
59	5
57	5
56	5
55	3
53	5
51	2
50	5
49	7
48	5
47	2
46	3
45	2
44	1
43	2
42	2
41	4
40	2
39	5
38	3
37	1
36	2
35	2
34	8
33	5
32	6
31	4
30	3
29	2
28	5
27	1
26	4
25	3
